300,787
293,124
385,360
996,635
850,529
644,292
663,349
841,325
981,406
776,219
611,309
1221,406
658,554
1045,670
441,406
521,325
817,673
1184,327
937,489
844,86
766,433
600,246
871,216
681,76
751,309
